StringID   Type       x          y          demand     ReadyTime  DueDate    ServiceTime wp1    wp2    wp3  wp4
D0         d          40.0       50.0       0.0        0.0        240.0      0.0         8      9      10   11
S0         f          40.0       50.0       0.0        0.0        240.0      0.0         0.6    1      1    1
S1         f          73.0       52.0       0.0        0.0        240.0      0.0         0.6    1      1    1
S2         f          90.0       55.0       0.0        0.0        240.0      0.0         0.6    1      1    1
S3         f          55.0       79.0       0.0        0.0        240.0      0.0         0.2    0.3    0.3  0.3
S4         f          69.0       89.0       0.0        0.0        240.0      0.0         0.2    0.3    0.3  0.3
S5         f          32.0       80.0       0.0        0.0        240.0      0.0         0.2    0.3    0.3  0.3
S6         f          39.0       96.0       0.0        0.0        240.0      0.0         0.6    1      1    1
S7         f          23.0       80.0       0.0        0.0        240.0      0.0         0.2    0.3    0.3  0.3
S8         f          4.0        83.0       0.0        0.0        240.0      0.0         0.2    0.3    0.3  0.3
S9         f          18.0       58.0       0.0        0.0        240.0      0.0         0.6    1      1    1
S10        f          1.0        56.0       0.0        0.0        240.0      0.0         0.6    1      1    1
S11        f          13.0       31.0       0.0        0.0        240.0      0.0         0.6    1      1    1
S12        f          -5.0       38.0       0.0        0.0        240.0      0.0         0.6    1      1    1
S13        f          26.0       37.0       0.0        0.0        240.0      0.0         0.6    1      1    1
S14        f          28.0       13.0       0.0        0.0        240.0      0.0         0.2    0.3    0.3  0.3
S15        f          39.0       31.0       0.0        0.0        240.0      0.0         0.6    1      1    1
S16        f          48.0       11.0       0.0        0.0        240.0      0.0         0.2    0.3    0.3  0.3
S17        f          59.0       17.0       0.0        0.0        240.0      0.0         0.2    0.3    0.3  0.3
S18        f          73.0       23.0       0.0        0.0        240.0      0.0         0.6    1      1    1
S19        f          74.0       32.0       0.0        0.0        240.0      0.0         0.2    0.3    0.3  0.3
S20        f          90.0       44.0       0.0        0.0        240.0      0.0         0.2    0.3    0.3  0.3       
C1         c          25.0       85.0       20.0       131.0      191.0      10.0       
C2         c          22.0       75.0       30.0       69.0       129.0      10.0       
C3         c          22.0       85.0       10.0       98.0       158.0      10.0       
C4         c          20.0       80.0       40.0       46.0       106.0      10.0       
C5         c          20.0       85.0       20.0       124.0      184.0      10.0            
C18        c          44.0       5.0        20.0       64.0       124.0      10.0       
C19        c          42.0       10.0       40.0       48.0       108.0      10.0       
C20        c          42.0       15.0       10.0       104.0      164.0      10.0       
C21        c          40.0       5.0        10.0       125.0      185.0      10.0       
C22        c          40.0       15.0       40.0       91.0       151.0      10.0      
C26        c          95.0       30.0       30.0       88.0       148.0      10.0       
C27        c          95.0       35.0       20.0       112.0      172.0      10.0       
C28        c          92.0       30.0       10.0       114.0      174.0      10.0       
C29        c          90.0       35.0       10.0       113.0      173.0      10.0       
C30        c          88.0       30.0       10.0       114.0      174.0      10.0       
C31        c          88.0       35.0       20.0       87.0       147.0      10.0       
C32        c          87.0       30.0       10.0       67.0       127.0      10.0       
C33        c          85.0       25.0       10.0       84.0       144.0      10.0       
C34        c          85.0       35.0       30.0       122.0      182.0      10.0  
C95        c          56.0       37.0       6.0        51.0       111.0      10.0       
C96        c          55.0       54.0       26.0       154.0      214.0      10.0       
C97        c          4.0        18.0       35.0       119.0      179.0      10.0       
C98        c          26.0       52.0       9.0        128.0      188.0      10.0       
C99        c          26.0       35.0       15.0       36.0       96.0       10.0       
C100       c          31.0       67.0       3.0        20.0       80.0       10.0       

F Vehicle fuel tank capacity /12/
Q Vehicle load capacity /200.0/
r fuel consumption rate /0.155/
g inverse refueling rate /0.5/
v average Velocity /1.0/